language Essence 1.3

letting blksize_delta be function(1 --> 7, 2 --> 7, 3 --> 7, 4 --> 7, 5 --> 7)
letting maxcars be function(1 --> 10, 2 --> 10, 3 --> 10, 4 --> 10, 5 --> 10)
letting n_cars be 266
letting n_classes be 85
letting n_options be 5
letting quantity be
        function(1 --> 13, 2 --> 4, 3 --> 3, 4 --> 3, 5 --> 3, 6 --> 3, 7 --> 3, 8 --> 3, 9 --> 3, 10 --> 3, 11 --> 3,
                 12 --> 3, 13 --> 3, 14 --> 3, 15 --> 3, 16 --> 3, 17 --> 3, 18 --> 3, 19 --> 3, 20 --> 3, 21 --> 3,
                 22 --> 3, 23 --> 3, 24 --> 3, 25 --> 3, 26 --> 3, 27 --> 3, 28 --> 3, 29 --> 3, 30 --> 3, 31 --> 3,
                 32 --> 3, 33 --> 3, 34 --> 3, 35 --> 3, 36 --> 3, 37 --> 3, 38 --> 3, 39 --> 3, 40 --> 3, 41 --> 3,
                 42 --> 3, 43 --> 3, 44 --> 3, 45 --> 3, 46 --> 3, 47 --> 3, 48 --> 3, 49 --> 3, 50 --> 3, 51 --> 3,
                 52 --> 3, 53 --> 3, 54 --> 3, 55 --> 3, 56 --> 3, 57 --> 3, 58 --> 3, 59 --> 3, 60 --> 3, 61 --> 3,
                 62 --> 3, 63 --> 3, 64 --> 3, 65 --> 3, 66 --> 3, 67 --> 3, 68 --> 3, 69 --> 3, 70 --> 3, 71 --> 3,
                 72 --> 3, 73 --> 3, 74 --> 3, 75 --> 3, 76 --> 3, 77 --> 3, 78 --> 3, 79 --> 3, 80 --> 3, 81 --> 3,
                 82 --> 3, 83 --> 3, 84 --> 3, 85 --> 3)
letting usage be
        relation((1, 4), (2, 5), (3, 1), (3, 2), (4, 1), (4, 2), (4, 3), (5, 3), (6, 2), (6, 5), (7, 1), (7, 2), (7, 4),
                 (7, 5), (8, 2), (9, 5), (10, 1), (10, 4), (10, 5), (11, 4), (11, 5), (12, 1), (12, 2), (12, 4),
                 (13, 2), (13, 5), (14, 2), (14, 3), (15, 3), (16, 1), (16, 3), (17, 3), (17, 4), (18, 5), (19, 1),
                 (19, 2), (19, 3), (19, 5), (20, 3), (20, 4), (20, 5), (21, 2), (22, 5), (23, 1), (23, 3), (24, 1),
                 (24, 4), (25, 1), (25, 3), (25, 5), (26, 1), (26, 2), (27, 5), (28, 1), (28, 3), (29, 1), (29, 2),
                 (29, 3), (29, 4), (30, 1), (30, 2), (30, 3), (31, 1), (31, 2), (32, 4), (33, 2), (33, 4), (34, 1),
                 (34, 3), (34, 4), (35, 1), (35, 2), (35, 5), (36, 1), (36, 2), (36, 3), (36, 5), (37, 2), (37, 3),
                 (38, 1), (38, 3), (38, 4), (38, 5), (39, 1), (39, 4), (40, 2), (40, 5), (41, 2), (41, 3), (42, 1),
                 (42, 2), (42, 4), (43, 4), (44, 3), (44, 5), (45, 1), (45, 4), (45, 5), (46, 2), (46, 4), (46, 5),
                 (47, 1), (47, 2), (47, 3), (47, 5), (48, 1), (48, 3), (49, 1), (50, 1), (50, 3), (51, 4), (52, 1),
                 (52, 2), (52, 3), (52, 4), (53, 1), (53, 5), (54, 1), (54, 2), (55, 3), (56, 3), (57, 1), (57, 3),
                 (58, 5), (59, 4), (60, 4), (61, 1), (61, 2), (62, 1), (62, 4), (63, 3), (63, 4), (64, 3), (65, 5),
                 (66, 2), (67, 2), (67, 3), (67, 4), (68, 3), (69, 1), (69, 3), (70, 1), (71, 5), (72, 2), (73, 3),
                 (73, 4), (74, 5), (75, 5), (76, 2), (76, 3), (76, 4), (77, 1), (77, 3), (78, 1), (78, 2), (78, 3),
                 (79, 2), (79, 3), (79, 4), (80, 1), (81, 1), (82, 5), (83, 3), (84, 1), (84, 2), (84, 3), (85, 5))
$ Visualisation for usage
$  1  4
$  2  5
$  3  1
$  3  2
$  4  1
$  4  2
$  4  3
$  5  3
$  6  2
$  6  5
$  7  1
$  7  2
$  7  4
$  7  5
$  8  2
$  9  5
$ 10  1
$ 10  4
$ 10  5
$ 11  4
$ 11  5
$ 12  1
$ 12  2
$ 12  4
$ 13  2
$ 13  5
$ 14  2
$ 14  3
$ 15  3
$ 16  1
$ 16  3
$ 17  3
$ 17  4
$ 18  5
$ 19  1
$ 19  2
$ 19  3
$ 19  5
$ 20  3
$ 20  4
$ 20  5
$ 21  2
$ 22  5
$ 23  1
$ 23  3
$ 24  1
$ 24  4
$ 25  1
$ 25  3
$ 25  5
$ 26  1
$ 26  2
$ 27  5
$ 28  1
$ 28  3
$ 29  1
$ 29  2
$ 29  3
$ 29  4
$ 30  1
$ 30  2
$ 30  3
$ 31  1
$ 31  2
$ 32  4
$ 33  2
$ 33  4
$ 34  1
$ 34  3
$ 34  4
$ 35  1
$ 35  2
$ 35  5
$ 36  1
$ 36  2
$ 36  3
$ 36  5
$ 37  2
$ 37  3
$ 38  1
$ 38  3
$ 38  4
$ 38  5
$ 39  1
$ 39  4
$ 40  2
$ 40  5
$ 41  2
$ 41  3
$ 42  1
$ 42  2
$ 42  4
$ 43  4
$ 44  3
$ 44  5
$ 45  1
$ 45  4
$ 45  5
$ 46  2
$ 46  4
$ 46  5
$ 47  1
$ 47  2
$ 47  3
$ 47  5
$ 48  1
$ 48  3
$ 49  1
$ 50  1
$ 50  3
$ 51  4
$ 52  1
$ 52  2
$ 52  3
$ 52  4
$ 53  1
$ 53  5
$ 54  1
$ 54  2
$ 55  3
$ 56  3
$ 57  1
$ 57  3
$ 58  5
$ 59  4
$ 60  4
$ 61  1
$ 61  2
$ 62  1
$ 62  4
$ 63  3
$ 63  4
$ 64  3
$ 65  5
$ 66  2
$ 67  2
$ 67  3
$ 67  4
$ 68  3
$ 69  1
$ 69  3
$ 70  1
$ 71  5
$ 72  2
$ 73  3
$ 73  4
$ 74  5
$ 75  5
$ 76  2
$ 76  3
$ 76  4
$ 77  1
$ 77  3
$ 78  1
$ 78  2
$ 78  3
$ 79  2
$ 79  3
$ 79  4
$ 80  1
$ 81  1
$ 82  5
$ 83  3
$ 84  1
$ 84  2
$ 84  3
$ 85  5

